CMPL model generation - running

CMPL version: 1.11.0
Authors: Thomas Schleiff, Mike Steglich
Distributed under the GPLv3 

create model instance ...
write model instance ...
CMPL model generation - finished

Solver - running


Welcome to IBM(R) ILOG(R) CPLEX(R) Interactive Optimizer 12.7.1.0
  with Simplex, Mixed Integer & Barrier Optimizers
5725-A06 5725-A29 5724-Y48 5724-Y49 5724-Y54 5724-Y55 5655-Y21
Copyright IBM Corp. 1988, 2017.  All Rights Reserved.

Type 'help' for a list of available commands.
Type 'help' followed by a command name for more
information on commands.

CPLEX> Specified objective sense: MINIMIZE
Selected objective  name:  line[1]
Selected RHS        name:  RHS
Selected bound      name:  BOUND
Problem '/tmp/cmpl.T24171.mps' read.
Read time = 0.27 sec. (8.17 ticks)
CPLEX> CPXPARAM_Read_APIEncoding                        "UTF-8"
Tried aggregator 3 times.
MIP Presolve eliminated 19209 rows and 30650 columns.
MIP Presolve modified 340 coefficients.
Aggregator did 646 substitutions.
Reduced MIP has 2500 rows, 3297 columns, and 9619 nonzeros.
Reduced MIP has 3129 binaries, 0 generals, 0 SOSs, and 0 indicators.
Presolve time = 0.20 sec. (41.92 ticks)
Found incumbent of value 749.108428 after 0.37 sec. (63.67 ticks)
Probing fixed 16 vars, tightened 0 bounds.
Probing time = 0.03 sec. (4.27 ticks)
Tried aggregator 1 time.
MIP Presolve eliminated 0 rows and 16 columns.
MIP Presolve modified 79 coefficients.
Reduced MIP has 2500 rows, 3281 columns, and 9587 nonzeros.
Reduced MIP has 3281 binaries, 0 generals, 0 SOSs, and 0 indicators.
Presolve time = 0.03 sec. (8.23 ticks)
Probing time = 0.03 sec. (2.69 ticks)
Clique table members: 5915.
MIP emphasis: balance optimality and feasibility.
MIP search method: dynamic search.
Parallel mode: none, using 1 thread.
Root relaxation solution time = 0.01 sec. (4.79 ticks)

        Nodes                                         Cuts/
   Node  Left     Objective  IInf  Best Integer    Best Bound    ItCnt     Gap

*     0+    0                          749.1084      -32.4546           104.33%
      0     0      193.5564    11      749.1084      193.5564      145   74.16%
*     0+    0                          199.6644      193.5564             3.06%
*     0+    0                          193.8707      193.5564             0.16%
      0     0      193.7325     2      193.8707      Cuts: 22      156    0.07%
*     0+    0                          193.7736      193.7325             0.02%
      0     0        cutoff            193.7736                    159    0.00%
Elapsed time = 0.53 sec. (110.24 ticks, tree = 0.01 MB, solutions = 4)

GUB cover cuts applied:  2
Clique cuts applied:  2
Cover cuts applied:  16
Gomory fractional cuts applied:  9

Root node processing (before b&c):
  Real time             =    0.54 sec. (111.96 ticks)
Sequential b&c:
  Real time             =    0.00 sec. (0.00 ticks)
                          ------------
Total (root+branch&cut) =    0.54 sec. (111.96 ticks)

Solution pool: 4 solutions saved.

MIP - Integer optimal solution:  Objective =  1.9377361700e+02
Solution time =    0.54 sec.  Iterations = 159  Nodes = 0
Deterministic time = 112.06 ticks  (207.57 ticks/sec)

CPLEX> Incumbent solution written to file '/tmp/cmpl.T24171.gsol'.
CPLEX> 
CMPL: Time used for model generation: 0 seconds
CMPL: Time used for solving the model: 3 seconds


Solution written to ASCII file: results/output_generated_conf_0.5/2017-01-09-4/fair-nonlinear.sol

Solver - finished
